max_width = 33;
n_blocks = 23;
width = [7, 3, 3, 3, 4, 4, 3, 4, 3, 3, 4, 3, 3, 3, 3, 4, 3, 3, 4, 3, 3, 4, 3];
height = [33, 33, 30, 24, 17, 14, 17, 12, 15, 14, 10, 13, 10, 9, 8, 6, 7, 6, 4, 5, 4, 3, 3];
